
Value of objective function: 0.01593690

Actual values of the variables:
pL1_div_from_law        0.0159369
comp_pos0                       0
comp_neg0                       0
comp_pos1                       0
comp_neg1                       0
comp_pos2                       0
comp_neg2                       0
comp_pos3                       0
comp_neg3                       0
comp_pos4                       0
comp_neg4                       0
comp_pos5                       0
comp_neg5                       0
comp_pos6               0.0159369
comp_neg6                       0
comp_pos7                       0
comp_neg7                       0
comp_pos8                       0
comp_neg8                       0
comp_pos9                       0
comp_neg9                       0
comp_pos10                      0
comp_neg10                      0
comp_pos11                      0
comp_neg11                      0
comp_pos12                      0
comp_neg12                      0
comp_pos13                      0
comp_neg13                      0
z_c0_t0               1.32138e+10
p0_c0_t0              3.70688e+09
p1_c0_t0              1.05272e+08
p2_c0_t0              9.09852e+09
p3_c0_t0              3.03162e+08
diff0                           0
normdiff0                       0
z_c0_t1               1.47752e+10
p0_c0_t1              3.25329e+09
p1_c0_t1              1.18054e+08
p2_c0_t1              1.06732e+10
p3_c0_t1              7.30631e+08
diff1                           0
normdiff1                       0
z_c1_t0               1.65566e+10
p0_c1_t0               3.7854e+09
p1_c1_t0              1.36618e+08
p2_c1_t0              1.24642e+10
p3_c1_t0              1.70339e+08
diff2                           0
normdiff2                       0
z_c1_t1               1.94959e+10
p0_c1_t1              3.85308e+09
p1_c1_t1              1.94357e+08
p2_c1_t1              1.51874e+10
p3_c1_t1              2.60998e+08
diff3                           0
normdiff3                       0
z_c2_t0               7.24754e+09
p0_c2_t0              1.27875e+09
p1_c2_t0              5.51971e+07
p2_c2_t0              5.76302e+09
p3_c2_t0              1.50576e+08
diff4                           0
normdiff4                       0
z_c2_t1               7.97123e+09
p0_c2_t1              1.04846e+09
p1_c2_t1              6.45183e+07
p2_c2_t1              6.58048e+09
p3_c2_t1              2.77768e+08
diff5                           0
normdiff5                       0
z_c3_t0               1.22612e+10
p0_c3_t0              2.31356e+09
p1_c3_t0              9.43659e+07
p2_c3_t0              9.64284e+09
p3_c3_t0               4.0582e+08
diff6                 1.95405e+08
normdiff6               0.0159369
z_c3_t1               1.42798e+10
p0_c3_t1              2.64303e+09
p1_c3_t1               9.6642e+07
p2_c3_t1              1.07766e+10
p3_c3_t1              7.63537e+08
diff7                           0
normdiff7                       0
z_c4_t0               7.97197e+09
p0_c4_t0              1.02115e+09
p1_c4_t0              1.05596e+08
p2_c4_t0              6.72434e+09
p3_c4_t0              1.20886e+08
diff8                           0
normdiff8                       0
z_c4_t1                8.9819e+09
p0_c4_t1              1.06647e+09
p1_c4_t1              9.72162e+07
p2_c4_t1              7.69744e+09
p3_c4_t1              1.20771e+08
diff9                           0
normdiff9                       0
z_c5_t0               1.00642e+10
p0_c5_t0              1.80076e+09
p1_c5_t0              8.82169e+07
p2_c5_t0              8.12486e+09
p3_c5_t0              5.03208e+07
diff10                          0
normdiff10                      0
z_c5_t1                1.2016e+10
p0_c5_t1               1.3287e+09
p1_c5_t1              8.82549e+07
p2_c5_t1              1.04003e+10
p3_c5_t1              1.98769e+08
diff11                          0
normdiff11                      0
z_c6_t0               1.81204e+10
p0_c6_t0              3.28804e+09
p1_c6_t0              1.12562e+08
p2_c6_t0              1.45555e+10
p3_c6_t0              1.64267e+08
diff12                          0
normdiff12                      0
z_c6_t1               2.06345e+10
p0_c6_t1               3.5709e+09
p1_c6_t1              1.03172e+08
p2_c6_t1              1.67916e+10
p3_c6_t1              1.68833e+08
diff13                          0
normdiff13                      0
